61
[[-1, 0, 41758, 13453, 28343, 23801, 31363, 35336, 0, 0, 35615, 36261, 0, 15759, 0, 8992, 0, 33188, 0, 0, 35453, 0, 45292, 0, 0, 0, 0, 25846, 0, 40298, 0, 0, 0, 0, 0, 0, 0, 0, 0, 0, 0, 0, 0, 0, 0, 0, 0, 0, 0, 0, 0, 0, 0, 0, 43767, 0, 0, 0, 0, 0, 32773],[0, -1, 0, 0, 0, 37519, 0, 30520, 40710, 0, 0, 22584, 0, 0, 40200, 0, 0, 15943, 0, 0, 0, 40873, 36848, 35290, 0, 37098, 39342, 0, 5353, 0, 0, 0, 14609, 0, 15059, 0, 0, 22594, 0, 0, 0, 0, 0, 39971, 0, 0, 0, 0, 0, 34014, 0, 34693, 0, 0, 0, 0, 0, 0, 0, 0, 0],[41758, 0, -1, 0, 0, 39282, 0, 31041, 0, 0, 26125, 0, 20555, 0, 0, 30242, 42920, 36136, 0, 0, 0, 26115, 29052, 0, 0, 0, 0, 0, 0, 0, 0, 0, 0, 0, 0, 0, 0, 44443, 32474, 32699, 0, 30171, 0, 27872, 0, 16882, 0, 0, 0, 8587, 42777, 37328, 0, 0, 31474, 0, 0, 9445, 0, 24537, 0],[13453, 0, 0, -1, 0, 0, 42250, 0, 0, 37901, 0, 0, 0, 0, 0, 36639, 26799, 0, 0, 0, 0, 0, 0, 0, 0, 0, 45763, 0, 0, 43814, 0, 0, 31932, 0, 0, 39170, 41568, 0, 0, 0, 0, 41904, 0, 0, 0, 44656, 0, 43979, 0, 0, 0, 0, 0, 33652, 45427, 37553, 0, 0, 0, 0, 0],[28343, 0, 0, 0, -1, 0, 0, 38967, 0, 0, 0, 0, 0, 0, 0, 0, 0, 0, 0, 33170, 0, 0, 0, 0, 20255, 25089, 0, 0, 0, 0, 41882, 0, 0, 0, 0, 11767, 0, 0, 0, 0, 0, 0, 36760, 0, 0, 0, 0, 0, 28654, 0, 0, 28519, 35809, 32631, 39184, 0, 0, 0, 0, 0, 0],[23801, 37519, 39282, 0, 0, -1, 0, 0, 0, 39723, 0, 31063, 0, 0, 35788, 0, 25962, 0, 0, 0, 0, 0, 39264, 26704, 0, 0, 0, 0, 0, 45012, 0, 0, 0, 0, 0, 0, 0, 0, 0, 0, 0, 0, 0, 0, 0, 0, 0, 0, 0, 0, 0, 0, 43031, 0, 0, 38612, 0, 0, 0, 0, 22214],[31363, 0, 0, 42250, 0, 0, -1, 0, 0, 40093, 0, 0, 11549, 0, 0, 0, 17845, 0, 19524, 0, 11247, 0, 0, 28067, 40425, 44957, 39389, 0, 0, 0, 0, 0, 0, 0, 0, 0, 0, 0, 0, 38381, 0, 0, 31744, 0, 39713, 29935, 0, 0, 45265, 0, 0, 29984, 0, 31299, 40124, 0, 0, 0, 39688, 0, 0],[35336, 30520, 31041, 0, 38967, 0, 0, -1, 0, 0, 0, 0, 0, 30595, 0, 0, 0, 25955, 43273, 42274, 0, 0, 0, 16284, 0, 0, 0, 0, 12764, 0, 33537, 0, 0, 0, 0, 0, 0, 38037, 32606, 0, 0, 0, 0, 0, 43520, 39188, 43533, 0, 0, 0, 0, 0, 0, 34238, 0, 0, 0, 0, 0, 0, 0],[0, 40710, 0, 0, 0, 0, 0, 0, -1, 0, 37787, 0, 0, 0, 30401, 43201, 0, 0, 24561, 41694, 0, 0, 0, 0, 0, 0, 0, 0, 0, 0, 0, 0, 0, 0, 0, 0, 0, 0, 0, 0, 0, 0, 0, 0, 0, 0, 0, 0, 0, 0, 34497, 0, 0, 24233, 15787, 0, 45489, 16318, 31174, 0, 0],[0, 0, 0, 37901, 0, 39723, 40093, 0, 0, -1, 0, 0, 0, 0, 37916, 8764, 0, 0, 0, 25329, 0, 0, 0, 0, 0, 0, 0, 15820, 45987, 0, 0, 0, 0, 0, 38845, 25448, 0, 0, 0, 0, 0, 0, 0, 0, 44648, 0, 46265, 0, 0, 36966, 0, 0, 0, 0, 0, 0, 0, 29186, 0, 0, 0],[35615, 0, 26125, 0, 0, 0, 0, 0, 37787, 0, -1, 0, 41749, 0, 0, 0, 0, 40556, 40425, 0, 0, 0, 26881, 0, 0, 0, 0, 0, 0, 41756, 0, 37541, 0, 0, 0, 14535, 0, 45990, 0, 25557, 30835, 0, 45511, 0, 0, 0, 0, 23784, 0, 34077, 44409, 0, 0, 0, 16515, 28105, 0, 0, 0, 43109, 0],[36261, 22584, 0, 0, 0, 31063, 0, 0, 0, 0, 0, -1, 0, 0, 0, 0, 0, 0, 0, 0, 0, 0, 43985, 0, 0, 0, 0, 0, 0, 26822, 0, 0, 0, 0, 0, 0, 16110, 0, 11306, 0, 0, 0, 0, 0, 0, 0, 0, 0, 0, 0, 41274, 39708, 0, 41876, 0, 0, 35871, 0, 0, 39465, 0],[0, 0, 20555, 0, 0, 0, 11549, 0, 0, 0, 41749, 0, -1, 17644, 0, 0, 0, 0, 0, 0, 0, 0, 46273, 0, 39676, 0, 23127, 0, 37513, 33474, 0, 0, 7203, 0, 0, 0, 0, 19825, 0, 0, 0, 40487, 0, 0, 0, 0, 0, 36723, 0, 0, 0, 0, 0, 0, 0, 0, 14489, 0, 0, 0, 0],[15759, 0, 0, 0, 0, 0, 0, 30595, 0, 0, 0, 0, 17644, -1, 30178, 0, 0, 42421, 0, 37090, 0, 9696, 0, 0, 0, 0, 19939, 35154, 38405, 18882, 37748, 42564, 0, 8044, 0, 0, 0, 0, 0, 0, 0, 0, 0, 0, 0, 0, 0, 41446, 0, 26449, 0, 0, 0, 39270, 0, 42572, 0, 32024, 0, 0, 0],[0, 40200, 0, 0, 0, 35788, 0, 0, 30401, 37916, 0, 0, 0, 30178, -1, 33919, 27692, 0, 0, 20607, 0, 0, 38386, 0, 0, 0, 40456, 0, 0, 43047, 0, 0, 29163, 0, 0, 0, 0, 0, 0, 0, 0, 28013, 0, 40819, 42093, 0, 0, 0, 29600, 0, 0, 39676, 0, 0, 0, 0, 45142, 0, 0, 0, 0],[8992, 0, 30242, 36639, 0, 0, 0, 0, 43201, 8764, 0, 0, 0, 0, 33919, -1, 0, 0, 0, 0, 0, 0, 39823, 46218, 0, 0, 0, 0, 0, 43671, 24386, 0, 0, 0, 0, 0, 42474, 0, 0, 26038, 0, 45788, 42281, 0, 0, 41681, 0, 0, 0, 42005, 0, 0, 0, 0, 0, 0, 0, 18187, 0, 38714, 0],[0, 0, 42920, 26799, 0, 25962, 17845, 0, 0, 0, 0, 0, 0, 0, 27692, 0, -1, 44890, 0, 0, 0, 0, 20262, 0, 0, 0, 0, 0, 43442, 40676, 15166, 0, 0, 0, 0, 0, 26280, 42989, 0, 0, 0, 0, 0, 0, 0, 0, 0, 0, 0, 0, 27483, 0, 0, 0, 0, 32699, 0, 0, 0, 16937, 42593],[33188, 15943, 36136, 0, 0, 0, 0, 25955, 0, 0, 40556, 0, 0, 42421, 0, 0, 44890, -1, 26060, 0, 45815, 40824, 0, 0, 0, 0, 0, 0, 0, 39023, 29424, 0, 0, 0, 31293, 0, 0, 8060, 0, 0, 43105, 0, 0, 0, 0, 0, 0, 0, 21407, 0, 0, 0, 0, 20600, 42805, 0, 0, 0, 0, 36717, 22606],[0, 0, 0, 0, 0, 0, 19524, 43273, 24561, 0, 40425, 0, 0, 0, 0, 0, 0, 26060, -1, 34283, 0, 0, 30776, 0, 0, 0, 0, 42164, 0, 0, 0, 0, 46081, 0, 0, 0, 0, 0, 0, 0, 0, 0, 0, 0, 0, 0, 0, 0, 0, 35639, 0, 37907, 0, 40664, 0, 42356, 0, 0, 35383, 0, 0],[0, 0, 0, 0, 33170, 0, 0, 42274, 41694, 25329, 0, 0, 0, 37090, 20607, 0, 0, 0, 34283, -1, 0, 0, 0, 0, 39458, 41830, 0, 0, 0, 0, 30828, 0, 0, 0, 0, 37807, 0, 0, 0, 0, 0, 0, 0, 0, 0, 0, 0, 46183, 36453, 0, 0, 0, 22054, 0, 0, 0, 0, 0, 0, 0, 0],[35453, 0, 0, 0, 0, 0, 11247, 0, 0, 0, 0, 0, 0, 0, 0, 0, 0, 45815, 0, 0, -1, 0, 0, 0, 0, 0, 0, 32436, 0, 0, 0, 0, 0, 0, 0, 0, 0, 38734, 0, 0, 0, 0, 0, 34455, 0, 0, 42675, 0, 0, 0, 0, 36563, 0, 0, 0, 0, 0, 0, 21809, 0, 0],[0, 40873, 26115, 0, 0, 0, 0, 0, 0, 0, 0, 0, 0, 9696, 0, 0, 0, 40824, 0, 0, 0, -1, 0, 0, 0, 0, 0, 42688, 0, 0, 0, 0, 27486, 0, 0, 0, 30809, 0, 0, 44859, 0, 0, 18858, 0, 41206, 0, 0, 43779, 0, 31911, 0, 0, 0, 0, 0, 0, 0, 0, 0, 0, 0],[45292, 36848, 29052, 0, 0, 39264, 0, 0, 0, 0, 26881, 43985, 46273, 0, 38386, 39823, 20262, 0, 30776, 0, 0, 0, -1, 0, 0, 0, 0, 0, 0, 0, 45054, 0, 0, 0, 0, 0, 0, 0, 0, 40711, 0, 31649, 0, 0, 0, 0, 0, 0, 0, 0, 0, 28196, 0, 33044, 0, 0, 0, 0, 41843, 34044, 0],[0, 35290, 0, 0, 0, 26704, 28067, 16284, 0, 0, 0, 0, 0, 0, 0, 46218, 0, 0, 0, 0, 0, 0, 0, -1, 0, 39173, 42970, 46261, 26021, 0, 0, 38194, 42799, 0, 0, 0, 39505, 0, 0, 42901, 0, 41957, 0, 46137, 0, 0, 0, 0, 45648, 0, 0, 0, 0, 14171, 0, 0, 0, 0, 38244, 0, 13257],[0, 0, 0, 0, 20255, 0, 40425, 0, 0, 0, 0, 0, 39676, 0, 0, 0, 0, 0, 0, 39458, 0, 0, 0, 0, -1, 0, 0, 0, 0, 0, 0, 0, 4551, 37468, 41479, 0, 0, 45182, 0, 41453, 2326, 13659, 0, 0, 0, 0, 0, 0, 0, 0, 0, 32112, 0, 46099, 38152, 0, 0, 0, 0, 0, 0],[0, 37098, 0, 0, 25089, 0, 44957, 0, 0, 0, 0, 0, 0, 0, 0, 0, 0, 0, 0, 41830, 0, 0, 0, 39173, 0, -1, 37396, 25470, 0, 0, 0, 0, 0, 33093, 0, 0, 0, 35218, 29424, 0, 0, 9243, 0, 42897, 0, 0, 12346, 0, 0, 0, 38527, 0, 0, 0, 0, 29931, 0, 0, 44382, 0, 0],[0, 39342, 0, 45763, 0, 0, 39389, 0, 0, 0, 0, 0, 23127, 19939, 40456, 0, 0, 0, 0, 0, 0, 0, 0, 42970, 0, 37396, -1, 42284, 0, 0, 26169, 0, 35838, 0, 0, 32992, 0, 27395, 0, 0, 0, 0, 0, 0, 0, 0, 33206, 0, 0, 0, 9927, 0, 0, 0, 0, 0, 0, 0, 0, 0, 0],[25846, 0, 0, 0, 0, 0, 0, 0, 0, 15820, 0, 0, 0, 35154, 0, 0, 0, 0, 42164, 0, 32436, 42688, 0, 46261, 0, 25470, 42284, -1, 0, 37094, 0, 0, 0, 0, 0, 0, 0, 0, 0, 0, 36477, 0, 0, 39092, 0, 0, 0, 0, 0, 0, 0, 0, 0, 0, 0, 0, 0, 10365, 23110, 0, 0],[0, 5353, 0, 0, 0, 0, 0, 12764, 0, 45987, 0, 0, 37513, 38405, 0, 0, 43442, 0, 0, 0, 0, 0, 0, 26021, 0, 0, 0, 0, -1, 0, 43545, 0, 0, 0, 0, 13212, 0, 0, 0, 0, 42629, 30273, 21339, 0, 0, 0, 0, 0, 0, 0, 0, 26801, 0, 35622, 0, 32166, 0, 0, 0, 0, 0],[40298, 0, 0, 43814, 0, 45012, 0, 0, 0, 0, 41756, 26822, 33474, 18882, 43047, 43671, 40676, 39023, 0, 0, 0, 0, 0, 0, 0, 0, 0, 37094, 0, -1, 0, 31219, 44773, 44055, 0, 15773, 0, 0, 36325, 0, 11016, 42878, 0, 23651, 0, 0, 19580, 0, 0, 0, 35050, 0, 0, 36011, 0, 42019, 0, 42769, 0, 0, 0],[0, 0, 0, 0, 41882, 0, 0, 33537, 0, 0, 0, 0, 0, 37748, 0, 24386, 15166, 29424, 0, 30828, 0, 0, 45054, 0, 0, 0, 26169, 0, 43545, 0, -1, 0, 0, 0, 0, 0, 0, 32589, 0, 0, 0, 0, 0, 41462, 0, 0, 0, 0, 30784, 0, 0, 37529, 0, 35759, 0, 0, 0, 34601, 0, 0, 0],[0, 0, 0, 0, 0, 0, 0, 0, 0, 0, 37541, 0, 0, 42564, 0, 0, 0, 0, 0, 0, 0, 0, 0, 38194, 0, 0, 0, 0, 0, 31219, 0, -1, 43138, 0, 0, 0, 0, 39624, 0, 26134, 34525, 35272, 0, 0, 0, 0, 0, 0, 0, 0, 25050, 0, 0, 0, 0, 0, 0, 0, 0, 16378, 0],[0, 14609, 0, 31932, 0, 0, 0, 0, 0, 0, 0, 0, 7203, 0, 29163, 0, 0, 0, 46081, 0, 0, 27486, 0, 42799, 4551, 0, 35838, 0, 0, 44773, 0, 43138, -1, 0, 0, 43468, 0, 0, 0, 0, 0, 0, 0, 0, 0, 0, 14214, 0, 0, 0, 0, 0, 0, 0, 6361, 27360, 11150, 0, 0, 0, 0],[0, 0, 0, 0, 0, 0, 0, 0, 0, 0, 0, 0, 0, 8044, 0, 0, 0, 0, 0, 0, 0, 0, 0, 0, 37468, 33093, 0, 0, 0, 44055, 0, 0, 0, -1, 42593, 0, 0, 0, 0, 34643, 0, 0, 44317, 0, 0, 9902, 0, 37317, 0, 33882, 0, 0, 0, 0, 0, 0, 0, 0, 0, 43541, 12103],[0, 15059, 0, 0, 0, 0, 0, 0, 0, 38845, 0, 0, 0, 0, 0, 0, 0, 31293, 0, 0, 0, 0, 0, 0, 41479, 0, 0, 0, 0, 0, 0, 0, 0, 42593, -1, 0, 13603, 0, 0, 0, 26841, 0, 0, 0, 30957, 0, 24186, 44451, 0, 0, 0, 0, 0, 0, 0, 0, 0, 0, 0, 0, 0],[0, 0, 0, 39170, 11767, 0, 0, 0, 0, 25448, 14535, 0, 0, 0, 0, 0, 0, 0, 0, 37807, 0, 0, 0, 0, 0, 0, 32992, 0, 13212, 15773, 0, 0, 43468, 0, 0, -1, 0, 0, 0, 0, 0, 0, 0, 0, 0, 0, 29065, 0, 0, 0, 35141, 0, 0, 0, 42629, 0, 0, 28482, 0, 0, 0],[0, 0, 0, 41568, 0, 0, 0, 0, 0, 0, 0, 16110, 0, 0, 0, 42474, 26280, 0, 0, 0, 0, 30809, 0, 39505, 0, 0, 0, 0, 0, 0, 0, 0, 0, 0, 13603, 0, -1, 37794, 0, 0, 13399, 37222, 0, 0, 0, 0, 0, 0, 0, 0, 0, 35226, 0, 0, 30253, 0, 0, 0, 0, 39191, 0],[0, 22594, 44443, 0, 0, 0, 0, 38037, 0, 0, 45990, 0, 19825, 0, 0, 0, 42989, 8060, 0, 0, 38734, 0, 0, 0, 45182, 35218, 27395, 0, 0, 0, 32589, 39624, 0, 0, 0, 0, 37794, -1, 0, 0, 41957, 0, 0, 0, 0, 0, 0, 0, 7274, 27263, 6261, 30626, 0, 0, 0, 41727, 0, 0, 0, 42267, 0],[0, 0, 32474, 0, 0, 0, 0, 32606, 0, 0, 0, 11306, 0, 0, 0, 0, 0, 0, 0, 0, 0, 0, 0, 0, 0, 29424, 0, 0, 0, 36325, 0, 0, 0, 0, 0, 0, 0, 0, -1, 0, 38834, 0, 0, 9340, 42852, 0, 33078, 29307, 22668, 0, 0, 0, 33762, 0, 0, 0, 0, 34022, 0, 0, 0],[0, 0, 32699, 0, 0, 0, 38381, 0, 0, 0, 25557, 0, 0, 0, 0, 26038, 0, 0, 0, 0, 0, 44859, 40711, 42901, 41453, 0, 0, 0, 0, 0, 0, 26134, 0, 34643, 0, 0, 0, 0, 0, -1, 0, 0, 36980, 0, 45697, 0, 0, 0, 0, 0, 0, 0, 0, 0, 0, 0, 45169, 0, 0, 0, 14744],[0, 0, 0, 0, 0, 0, 0, 0, 0, 0, 30835, 0, 0, 0, 0, 0, 0, 43105, 0, 0, 0, 0, 0, 0, 2326, 0, 0, 36477, 42629, 11016, 0, 34525, 0, 0, 26841, 0, 13399, 41957, 38834, 0, -1, 0, 35513, 0, 0, 0, 0, 0, 0, 20386, 42256, 0, 0, 0, 0, 0, 33485, 0, 29376, 0, 0],[0, 0, 30171, 41904, 0, 0, 0, 0, 0, 0, 0, 0, 40487, 0, 28013, 45788, 0, 0, 0, 0, 0, 0, 31649, 41957, 13659, 9243, 0, 0, 30273, 42878, 0, 35272, 0, 0, 0, 0, 37222, 0, 0, 0, 0, -1, 39468, 0, 0, 0, 15829, 39308, 0, 0, 0, 0, 0, 0, 0, 9408, 18535, 45524, 18406, 0, 0],[0, 0, 0, 0, 36760, 0, 31744, 0, 0, 0, 45511, 0, 0, 0, 0, 42281, 0, 0, 0, 0, 0, 18858, 0, 0, 0, 0, 0, 0, 21339, 0, 0, 0, 0, 44317, 0, 0, 0, 0, 0, 36980, 35513, 39468, -1, 0, 0, 0, 0, 0, 0, 0, 0, 0, 0, 0, 0, 0, 0, 11712, 0, 0, 0],[0, 39971, 27872, 0, 0, 0, 0, 0, 0, 0, 0, 0, 0, 0, 40819, 0, 0, 0, 0, 0, 34455, 0, 0, 46137, 0, 42897, 0, 39092, 0, 23651, 41462, 0, 0, 0, 0, 0, 0, 0, 9340, 0, 0, 0, 0, -1, 0, 0, 0, 44247, 34169, 0, 0, 0, 0, 0, 44013, 0, 13234, 0, 0, 0, 0],[0, 0, 0, 0, 0, 0, 39713, 43520, 0, 44648, 0, 0, 0, 0, 42093, 0, 0, 0, 0, 0, 0, 41206, 0, 0, 0, 0, 0, 0, 0, 0, 0, 0, 0, 0, 30957, 0, 0, 0, 42852, 45697, 0, 0, 0, 0, -1, 0, 0, 44895, 0, 0, 0, 0, 0, 0, 28945, 0, 43241, 0, 0, 0, 0],[0, 0, 16882, 44656, 0, 0, 29935, 39188, 0, 0, 0, 0, 0, 0, 0, 41681, 0, 0, 0, 0, 0, 0, 0, 0, 0, 0, 0, 0, 0, 0, 0, 0, 0, 9902, 0, 0, 0, 0, 0, 0, 0, 0, 0, 0, 0, -1, 37720, 30863, 0, 0, 0, 42368, 0, 17200, 0, 35493, 45496, 8849, 0, 0, 37501],[0, 0, 0, 0, 0, 0, 0, 43533, 0, 46265, 0, 0, 0, 0, 0, 0, 0, 0, 0, 0, 42675, 0, 0, 0, 0, 12346, 33206, 0, 0, 19580, 0, 0, 14214, 0, 24186, 29065, 0, 0, 33078, 0, 0, 15829, 0, 0, 0, 37720, -1, 38866, 35201, 0, 0, 0, 35805, 0, 0, 43959, 0, 0, 6959, 0, 32025],[0, 0, 0, 43979, 0, 0, 0, 0, 0, 0, 23784, 0, 36723, 41446, 0, 0, 0, 0, 0, 46183, 0, 43779, 0, 0, 0, 0, 0, 0, 0, 0, 0, 0, 0, 37317, 44451, 0, 0, 0, 29307, 0, 0, 39308, 0, 44247, 44895, 30863, 38866, -1, 18958, 0, 0, 0, 0, 0, 0, 0, 0, 0, 0, 0, 0],[0, 0, 0, 0, 28654, 0, 45265, 0, 0, 0, 0, 0, 0, 0, 29600, 0, 0, 21407, 0, 36453, 0, 0, 0, 45648, 0, 0, 0, 0, 0, 0, 30784, 0, 0, 0, 0, 0, 0, 7274, 22668, 0, 0, 0, 0, 34169, 0, 0, 35201, 18958, -1, 0, 34472, 0, 0, 0, 0, 32092, 0, 0, 0, 34352, 34611],[0, 34014, 8587, 0, 0, 0, 0, 0, 0, 36966, 34077, 0, 0, 26449, 0, 42005, 0, 0, 35639, 0, 0, 31911, 0, 0, 0, 0, 0, 0, 0, 0, 0, 0, 0, 33882, 0, 0, 0, 27263, 0, 0, 20386, 0, 0, 0, 0, 0, 0, 0, 0, -1, 0, 0, 35887, 0, 0, 29626, 0, 0, 0, 0, 0],[0, 0, 42777, 0, 0, 0, 0, 0, 34497, 0, 44409, 41274, 0, 0, 0, 0, 27483, 0, 0, 0, 0, 0, 0, 0, 0, 38527, 9927, 0, 0, 35050, 0, 25050, 0, 0, 0, 35141, 0, 6261, 0, 0, 42256, 0, 0, 0, 0, 0, 0, 0, 34472, 0, -1, 0, 44186, 0, 0, 0, 0, 0, 0, 40934, 0],[0, 34693, 37328, 0, 28519, 0, 29984, 0, 0, 0, 0, 39708, 0, 0, 39676, 0, 0, 0, 37907, 0, 36563, 0, 28196, 0, 32112, 0, 0, 0, 26801, 0, 37529, 0, 0, 0, 0, 0, 35226, 30626, 0, 0, 0, 0, 0, 0, 0, 42368, 0, 0, 0, 0, 0, -1, 0, 0, 0, 0, 0, 0, 0, 0, 0],[0, 0, 0, 0, 35809, 43031, 0, 0, 0, 0, 0, 0, 0, 0, 0, 0, 0, 0, 0, 22054, 0, 0, 0, 0, 0, 0, 0, 0, 0, 0, 0, 0, 0, 0, 0, 0, 0, 0, 33762, 0, 0, 0, 0, 0, 0, 0, 35805, 0, 0, 35887, 44186, 0, -1, 34556, 0, 43610, 0, 36092, 0, 0, 0],[0, 0, 0, 33652, 32631, 0, 31299, 34238, 24233, 0, 0, 41876, 0, 39270, 0, 0, 0, 20600, 40664, 0, 0, 0, 33044, 14171, 46099, 0, 0, 0, 35622, 36011, 35759, 0, 0, 0, 0, 0, 0, 0, 0, 0, 0, 0, 0, 0, 0, 17200, 0, 0, 0, 0, 0, 0, 34556, -1, 0, 0, 0, 0, 29950, 0, 41597],[43767, 0, 31474, 45427, 39184, 0, 40124, 0, 15787, 0, 16515, 0, 0, 0, 0, 0, 0, 42805, 0, 0, 0, 0, 0, 0, 38152, 0, 0, 0, 0, 0, 0, 0, 6361, 0, 0, 42629, 30253, 0, 0, 0, 0, 0, 0, 44013, 28945, 0, 0, 0, 0, 0, 0, 0, 0, 0, -1, 14305, 0, 0, 0, 0, 0],[0, 0, 0, 37553, 0, 38612, 0, 0, 0, 0, 28105, 0, 0, 42572, 0, 0, 32699, 0, 42356, 0, 0, 0, 0, 0, 0, 29931, 0, 0, 32166, 42019, 0, 0, 27360, 0, 0, 0, 0, 41727, 0, 0, 0, 9408, 0, 0, 0, 35493, 43959, 0, 32092, 29626, 0, 0, 43610, 0, 14305, -1, 0, 0, 0, 0, 27368],[0, 0, 0, 0, 0, 0, 0, 0, 45489, 0, 0, 35871, 14489, 0, 45142, 0, 0, 0, 0, 0, 0, 0, 0, 0, 0, 0, 0, 0, 0, 0, 0, 0, 11150, 0, 0, 0, 0, 0, 0, 45169, 33485, 18535, 0, 13234, 43241, 45496, 0, 0, 0, 0, 0, 0, 0, 0, 0, 0, -1, 0, 43804, 43572, 0],[0, 0, 9445, 0, 0, 0, 0, 0, 16318, 29186, 0, 0, 0, 32024, 0, 18187, 0, 0, 0, 0, 0, 0, 0, 0, 0, 0, 0, 10365, 0, 42769, 34601, 0, 0, 0, 0, 28482, 0, 0, 34022, 0, 0, 45524, 11712, 0, 0, 8849, 0, 0, 0, 0, 0, 0, 36092, 0, 0, 0, 0, -1, 0, 0, 0],[0, 0, 0, 0, 0, 0, 39688, 0, 31174, 0, 0, 0, 0, 0, 0, 0, 0, 0, 35383, 0, 21809, 0, 41843, 38244, 0, 44382, 0, 23110, 0, 0, 0, 0, 0, 0, 0, 0, 0, 0, 0, 0, 29376, 18406, 0, 0, 0, 0, 6959, 0, 0, 0, 0, 0, 0, 29950, 0, 0, 43804, 0, -1, 30011, 0],[0, 0, 24537, 0, 0, 0, 0, 0, 0, 0, 43109, 39465, 0, 0, 0, 38714, 16937, 36717, 0, 0, 0, 0, 34044, 0, 0, 0, 0, 0, 0, 0, 0, 16378, 0, 43541, 0, 0, 39191, 42267, 0, 0, 0, 0, 0, 0, 0, 0, 0, 0, 34352, 0, 40934, 0, 0, 0, 0, 0, 43572, 0, 30011, -1, 0],[32773, 0, 0, 0, 0, 22214, 0, 0, 0, 0, 0, 0, 0, 0, 0, 0, 42593, 22606, 0, 0, 0, 0, 0, 13257, 0, 0, 0, 0, 0, 0, 0, 0, 0, 12103, 0, 0, 0, 0, 0, 14744, 0, 0, 0, 0, 0, 37501, 32025, 0, 34611, 0, 0, 0, 0, 41597, 0, 27368, 0, 0, 0, 0, -1]]